(assert (forall ((pkt_0_4_6_0  Int  )(state_group_0_state_0_5_7_0  Int  )(state_group_0_state_1_6_8_0  Int  )) (let ((_n0 998 ))
(let ((_n1 pkt_0_4_6_0 ))
(let ((_n2 (=   _n1   _n0 ) ))
(let ((_n3 false ))
(let ((_n4 state_group_0_state_0_5_7_0 ))
(let ((_n5 (ite (=  _n1  998)  _n4   (ite  _n3  1 0)  ) ))
(let ((_n6 (=   _n5   (ite  _n3  1 0) ) ))
(let ((_n7 (not  _n6 ) ))
(let ((_n8 (and   _n2   _n7 ) ))
(let ((_n9 (and   _n8   _n2 ) ))
(let ((_n10 (not  _n9 ) ))
(let ((_n12 state_group_0_state_1_6_8_0 ))
(let ((_n13 true ))
(let ((_n14 (+   _n4   (ite  _n13  1 0) ) ))
(let ((_n15 (ite (=  _n12  0)  _n14   _n4  ) ))
(let ((_n16 (ite (=  _n1  998)  (ite  _n3  1 0)   _n12  ) ))
(let ((_n17 (=   _n16   (ite  _n3  1 0) ) ))
(let ((_n18 (ite (=  _n1  998)  _n3   _n17  ) ))
(let ((_n19 (not  _n18 ) ))
(let ((_n20 (or   _n19   _n2 ) ))
(let ((_n21 (ite  _n20   (ite  _n3  1 0)   _n4  ) ))
(let ((_n22 3 ))
(let ((_n23 (<   _n22   _n21 ) ))
(let ((_n24 (ite  _n20   _n3   _n23  ) ))
(let ((_n25 (or   _n24   _n20 ) ))
(let ((_n26 (not  _n25 ) ))
(let ((_n27 (+   _n4   (ite  _n26  1 0) ) ))
(let ((_n28 (not  _n24 ) ))
(let ((_n29 (or   _n28   _n20 ) ))
(let ((_n30 1000 ))
(let ((_n31 (ite  _n29   (ite  _n3  1 0)   _n30  ) ))
(let ((_n32 (ite  _n29   _n4   (ite  _n3  1 0)  ) ))
(let ((_n33 (+   _n32   _n31 ) ))
(let ((_n34 (ite (=  (ite  _n24  1 0)  1)  _n33   _n27  ) ))
(let ((_n35 (ite (=  (ite  _n18  1 0)  1)  _n34   _n4  ) ))
(let ((_n36 (not  _n2 ) ))
(let ((_n37 (or   _n8   _n36 ) ))
(let ((_n38 (not  _n37 ) ))
(let ((_n39 (+   _n4   (ite  _n38  1 0) ) ))
(let ((_n40 (ite (=  (ite  _n8  1 0)  1)  _n4   _n39  ) ))
(let ((_n41 (ite (=  (ite  _n2  1 0)  1)  _n40   _n35  ) ))
(let ((_n42 (=   _n41   _n15 ) ))
(let ((_n44 (ite (=  _n4  999)  (ite  _n13  1 0)   _n12  ) ))
(let ((_n45 (ite (=  _n12  0)  _n44   _n12  ) ))
(let ((_n46 (not  _n29 ) ))
(let ((_n47 (+   _n12   (ite  _n46  1 0) ) ))
(let ((_n48 (ite (=  (ite  _n24  1 0)  1)  _n47   _n12  ) ))
(let ((_n49 (ite (=  (ite  _n18  1 0)  1)  _n48   _n12  ) ))
(let ((_n50 (ite (=  (ite  _n2  1 0)  1)  _n12   _n49  ) ))
(let ((_n51 (=   _n50   _n45 ) ))
(let ((_n53 (ite (=  _n1  0)  _n1   (ite  _n3  1 0)  ) ))
(let ((_n54 (ite (=  _n1  0)  _n53   _n1  ) ))
(let ((_n55 (=   _n54   _n1 ) ))
(implies  (and (and (>= state_group_0_state_1_6_8_0 0) (< state_group_0_state_1_6_8_0 1024 ))  (and (and (>= state_group_0_state_0_5_7_0 0) (< state_group_0_state_0_5_7_0 1024 ))  (and (>= pkt_0_4_6_0 0) (< pkt_0_4_6_0 1024 )) ) )   (and  _n10  _n42  _n51  _n55 )  ))))))))))))))))))))))))))))))))))))))))))))))))))))))))
(check-sat)
(get-model)
(exit)